
Gurobi 13.0.2 (win64) logging started Fri Jul 24 09:22:42 2026

Set parameter LogFile to value "E:\codes\ExactEBRP\results\gf_c0_mechanism_transfer_c5_round30\runs\stage2__high_imbalance_seed5203__c5_candidate__300s\external\native_logs\L2.1.1_lp.gurobi.log"
Gurobi Optimizer version 13.0.2 build v13.0.2rc1 (win64 - Windows 10.0 (19045.2))

CPU model: 12th Gen Intel(R) Core(TM) i7-12700KF, instruction set [SSE2|AVX|AVX2]
Thread count: 12 physical cores, 20 logical processors, using up to 1 threads

Non-default parameters:
TimeLimit  105.0728652
MIPGap  0
MIPGapAbs  0
LogToConsole  0
Threads  1

Optimize a model with 11922 rows, 3380 columns and 67404 nonzeros (Min)
Model fingerprint: 0xbe2b4db9
Model has 21 linear objective coefficients
Coefficient statistics:
  Matrix range     [2e-02, 2e+04]
  Objective range  [2e-02, 1e+00]
  Bounds range     [7e-01, 4e+03]
  RHS range        [7e-01, 5e+04]

Presolve removed 1615 rows and 94 columns
Presolve time: 0.03s
Presolved: 10307 rows, 3287 columns, 53141 nonzeros

Iteration    Objective       Primal Inf.    Dual Inf.      Time
       0    1.0284292e+00   6.399636e+02   0.000000e+00      0s

Extra simplex iterations after uncrush: 1
    3146    2.1382865e+00   0.000000e+00   0.000000e+00      0s

Solved in 3146 iterations and 0.21 seconds (0.62 work units)
Optimal objective  2.138286521e+00

User-callback calls 3294, time in user-callback 0.00 sec
